language Essence 1.3

letting class be
        function(1 --> 6, 2 --> 4, 3 --> 5, 4 --> 5, 5 --> 9, 6 --> 1, 7 --> 1, 8 --> 2, 9 --> 6, 10 --> 9, 11 --> 8,
                 12 --> 3, 13 --> 6, 14 --> 9, 15 --> 3, 16 --> 6, 17 --> 2, 18 --> 2, 19 --> 2, 20 --> 7, 21 --> 5,
                 22 --> 10, 23 --> 10, 24 --> 6, 25 --> 3, 26 --> 4, 27 --> 1, 28 --> 2)
letting deck_length be 98
letting deck_width be 16
letting length be
        function(1 --> 7, 2 --> 1, 3 --> 1, 4 --> 1, 5 --> 1, 6 --> 1, 7 --> 3, 8 --> 2, 9 --> 1, 10 --> 1, 11 --> 1,
                 12 --> 1, 13 --> 1, 14 --> 1, 15 --> 16, 16 --> 1, 17 --> 1, 18 --> 1, 19 --> 1, 20 --> 1, 21 --> 3,
                 22 --> 1, 23 --> 6, 24 --> 1, 25 --> 1, 26 --> 1, 27 --> 1, 28 --> 1)
letting n_classes be 10
letting n_containers be 28
letting separation be function()
letting width be
        function(1 --> 15, 2 --> 5, 3 --> 13, 4 --> 13, 5 --> 13, 6 --> 1, 7 --> 14, 8 --> 3, 9 --> 11, 10 --> 6,
                 11 --> 12, 12 --> 13, 13 --> 5, 14 --> 7, 15 --> 16, 16 --> 2, 17 --> 15, 18 --> 5, 19 --> 12,
                 20 --> 16, 21 --> 12, 22 --> 6, 23 --> 16, 24 --> 10, 25 --> 3, 26 --> 13, 27 --> 7, 28 --> 7)
